(set-logic ALL)
(set-option :produce-models true)
(define-fun-rec str.toLower ((x String)) String
  (ite (= x "")
      ""
      (let ((Head (str.at x 0)))
        (str.++ 
          (ite (and (<= 65 (str.to_code Head)) 
                     (<= (str.to_code Head) 90))
               (str.from_code (+ (str.to_code Head) 32))
               Head)
          (str.toLower (str.substr x 1 (- (str.len x) 1)))))))
(declare-fun sym645 () String)
(declare-fun sym20 () String)
(declare-fun sym205 () String)
(declare-fun sym601 () String)
(declare-fun sym449 () String)
(declare-fun sym328 () String)
(declare-fun sym429 () String)
(declare-fun sym409 () String)
(declare-fun sym483 () String)
(declare-fun sym363 () String)
(declare-fun sym264 () String)
(declare-fun sym463 () String)
(declare-fun sym289 () String)
(declare-fun sym521 () String)
(declare-fun sym565 () String)
(declare-fun sym225 () String)
(declare-fun sym621 () String)
(declare-fun sym545 () String)
(declare-fun sym160 () String)
(declare-fun sym383 () String)
(declare-fun sym185 () String)
(declare-fun sym581 () String)
(declare-fun sym535 () String)
(declare-fun sym239 () String)
(declare-fun sym338 () String)
(declare-fun sym635 () String)
(declare-fun sym439 () String)
(declare-fun sym419 () String)
(declare-fun sym175 () String)
(declare-fun sym373 () String)
(declare-fun sym473 () String)
(declare-fun sym353 () String)
(declare-fun sym254 () String)
(declare-fun sym497 () String)
(declare-fun sym299 () String)
(declare-fun sym113 () String)
(declare-fun sym135 () String)
(declare-fun sym279 () String)
(declare-fun sym313 () String)
(declare-fun sym555 () String)
(declare-fun sym511 () String)
(declare-fun sym215 () String)
(declare-fun sym611 () String)
(declare-fun sym655 () String)
(declare-fun sym150 () String)
(declare-fun sym591 () String)
(declare-fun sym195 () String)
(declare-fun sym393 () String)

(assert (= (str.toLower sym521 )(str.toLower "description" )))
(assert (not (= (str.toLower sym645 )(str.toLower "description" ))))
(assert (= (str.toLower sym239 )(str.toLower "name" )))
(assert (not (= (str.toLower sym591 )(str.toLower "description" ))))
(assert (not (= (str.toLower sym535 )(str.toLower "name" ))))
(assert (= (str.toLower sym497 )(str.toLower "name" )))
(assert (not (= (str.toLower sym419 )(str.toLower "description" ))))
(assert (= (str.toLower sym225 )(str.toLower "table" )))
(assert (not (= (str.toLower sym353 )(str.toLower "name" ))))
(assert (not (= (str.toLower sym195 )(str.toLower "table" ))))
(assert (not (= (str.toLower sym383 )(str.toLower "length" ))))
(assert (= (str.toLower sym160 )(str.toLower "description" )))
(assert (= (str.toLower sym393 )(str.toLower "option" )))
(assert (= (str.toLower sym20 )"html" ))
(assert (not (= (str.toLower sym150 )(str.toLower "name" ))))
(assert (not (= (str.toLower sym215 )(str.toLower "description" ))))
(assert (= (str.toLower sym449 )(str.toLower "option" )))
(assert (= (str.toLower sym338 )(str.toLower "description" )))
(assert (= (str.toLower sym113 )(str.toLower "database" )))
(assert (not (= (str.toLower sym20 )"sql" )))
(assert (= (str.toLower sym621 )(str.toLower "option" )))
(assert (not (= (str.toLower sym185 )(str.toLower "description" ))))
(assert (not (= (str.toLower sym439 )(str.toLower "length" ))))
(assert (= (str.toLower sym313 )(str.toLower "name" )))
(assert (not (= (str.toLower sym254 )(str.toLower "name" ))))
(assert (not (= (str.toLower sym429 )(str.toLower "type" ))))
(assert (not (= (str.toLower sym635 )(str.toLower "name" ))))
(assert (= (str.toLower sym483 )(str.toLower "field" )))
(assert (not (= (str.toLower sym175 )(str.toLower "name" ))))
(assert (not (= (str.toLower sym205 )(str.toLower "name" ))))
(assert (not (= (str.toLower sym363 )(str.toLower "description" ))))
(assert (not (= (str.toLower sym601 )(str.toLower "type" ))))
(assert (not (= (str.toLower sym373 )(str.toLower "type" ))))
(assert (not (= (str.toLower sym555 )(str.toLower "type" ))))
(assert (= (str.toLower sym299 )(str.toLower "field" )))
(assert (= (str.toLower sym565 )(str.toLower "length" )))
(assert (not (= (str.toLower sym328 )(str.toLower "name" ))))
(assert (not (= (str.toLower sym511 )(str.toLower "name" ))))
(assert (= (str.toLower sym264 )(str.toLower "description" )))
(assert (not (= (str.toLower sym545 )(str.toLower "description" ))))
(assert (not (= (str.toLower sym279 )(str.toLower "name" ))))
(assert (not (= (str.toLower sym409 )(str.toLower "name" ))))
(assert (not (= (str.toLower sym463 )(str.toLower "name" ))))
(assert (not (= (str.toLower sym289 )(str.toLower "description" ))))
(assert (not (= (str.toLower sym611 )(str.toLower "length" ))))
(assert (not (= (str.toLower sym473 )(str.toLower "description" ))))
(assert (not (= (str.toLower sym581 )(str.toLower "name" ))))
(assert (= (str.toLower sym135 )(str.toLower "name" )))
(assert (not (= (str.toLower sym655 )(str.toLower "field" ))))
(check-sat)
(get-model)
(exit)
